Route #1: 63 23 56 41 43 1 73
Route #2: 16 42 64 22 28
Route #3: 68 2 62 33 6
Route #4: 30 48 47 21 74
Route #5: 61 69 36 71 60 70 20 37
Route #6: 4 45 27 52
Route #7: 29 5 15 57 13 54 8
Route #8: 67 46 34 75
Route #9: 35 14 11 53
Route #10: 7 65 66 59 19
Route #11: 72 31 10 38 58
Route #12: 40 9 39 12
Route #13: 17 3 44 32 26
Route #14: 50 25 55 18 24 49 51
Cost 1022
Time 0.775498
Tempo = 0.7862762000004295